;; sequence(s): A218864
;; terms: 0 1 17 20 52 57 105 112 176 185 265 276 372 385 497 512 640 657 801 820
;; small program: loop(((if (y mod 2) <= 0 then (2 * (2 + 2)) else 1) * y) + x, x, 0)
;; fast program: ((1 + ((((1 + (2 + 2)) * (1 + (x div 2))) + x) + x)) * (x div 2)) + x
(set-logic UFNIA)
(declare-fun f0 (Int Int) Int)
(declare-fun g0 (Int) Int)
(declare-fun h0 () Int)
(declare-fun u0 (Int Int) Int)
(declare-fun v0 (Int) Int)
(declare-fun small (Int) Int)
(declare-fun fast (Int) Int)
(assert (forall ((x Int) (y Int)) (= (f0 x y) (+ (* (ite (<= (mod y 2) 0) (* 2 (+ 2 2)) 1) y) x))))
(assert (forall ((x Int)) (= (g0 x) x)))
(assert (= h0 0))
(assert (forall ((x Int) (y Int)) (= (u0 x y) (ite (<= x 0) y (f0 (u0 (- x 1) y) x)))))
(assert (forall ((x Int)) (= (v0 x) (u0 (g0 x) h0))))
(assert (forall ((x Int)) (= (small x) (v0 x))))
(assert (forall ((x Int)) (= (fast x) (+ (* (+ 1 (+ (+ (* (+ 1 (+ 2 2)) (+ 1 (div x 2))) x) x)) (div x 2)) x))))
(assert (exists ((c Int)) (and (>= c 0) (not (= (small c) (fast c))))))
(check-sat)
